c 2 __LINUXTHREADS_OLD__
c 3 __UCLIBC_HAS_GNU_GLOB__
c 1 __UCLIBC_HAS_THREADS_NATIVE__
c 5 __UCLIBC_HAS_STDIO_BUFSIZ_NONE__
c 4 __UCLIBC_HAS_GLOB__
c 7 __LINUXTHREADS_NEW__
c 6 __UCLIBC_HAS_THREADS__
p cnf 7 1
1 -4 2 3 5 -6 7 1
